3 5
64 169 88 
0 1 7 32 26 43 44 84 73 49 18 12 22 3
1 52 48 91 82 25 25 50 54 5 96 70 12 1
2 19 10 73 80 58 51 37 92 52 90 49 98 1
3 44 51 93 97 52 52 95 48 23 56 36 83 3
4 2 12 61 54 15 5 30 97 52 11 17 61 3
